num_servers = 13;
sid = [0, 1, 2, 3, 4, 5, 6, 7, 8, 9, 10, 11, 12];
scpu = [10, 2, 10, 5, 5, 10, 5, 5, 5, 10, 5, 5, 5];
sram = [10, 4, 10, 3, 12, 10, 6, 9, 7, 10, 9, 6, 4];

num_vms = 32;
vjob = [0, 1, 2, 3, 3, 4, 5, 5, 5, 5, 5, 6, 7, 7, 7, 8, 8, 9, 9, 10, 11, 12, 13, 14, 14, 15, 16, 17, 18, 19, 19, 20];
vindex = [0, 0, 0, 0, 1, 0, 0, 1, 2, 3, 4, 0, 0, 1, 2, 0, 1, 0, 1, 0, 0, 0, 0, 0, 1, 0, 0, 0, 0, 0, 1, 0];
vcpu = [1, 1, 1, 1, 1, 1, 1, 3, 1, 1, 1, 1, 1, 1, 1, 1, 1, 1, 1, 1, 1, 1, 1, 1, 1, 1, 1, 1, 1, 1, 1, 1];
vram = [1, 2, 1, 1, 1, 1, 1, 1, 1, 1, 1, 1, 1, 1, 1, 1, 1, 2, 1, 1, 1, 1, 1, 1, 1, 1, 1, 1, 3, 1, 1, 1];
vac = [true, true, true, true, true, true, true, true, true, true, true, true, true, true, true, true, true, true, true, true, true, true, true, true, true, true, true, true, true, true, true, true];
